* SDPA sparse format data
* File name = st_e24.dat-s
* mDim =   9, nBlock = 10
* size of bVect = 1 *   9
* size of sparseMatrix =  119 * 5
  9
 10
-3  3  3  3  3  3  3  3  3  3 
   1.0000000000    0.8000000000    0.8000000000    0.0000000000   -0.8000000000    0.0000000000    0.0000000000    0.0000000000    0.0000000000 
  4   1   1   1    1.0000000000
  3   1   2   2   -1.0000000000
  0   1   2   2   -1.0000000000
  5   1   3   3   -1.0000000000
  0   1   3   3   -1.0000000000
  0   2   1   1   -1.0000000000
  1   2   1   2    1.0000000000
  2   2   1   3    1.0000000000
  3   2   2   2    1.0000000000
  4   2   2   3    1.0000000000
  5   2   3   3    1.0000000000
  0   3   1   1    0.5000000000
  1   3   1   1    0.6666666667
  2   3   1   1    1.0000000000
  1   3   1   2   -0.5000000000
  3   3   1   2    0.6666666667
  4   3   1   2    1.0000000000
  2   3   1   3   -0.5000000000
  4   3   1   3    0.6666666667
  5   3   1   3    1.0000000000
  3   3   2   2   -0.5000000000
  6   3   2   2    0.6666666667
  7   3   2   2    1.0000000000
  4   3   2   3   -0.5000000000
  7   3   2   3    0.6666666667
  8   3   2   3    1.0000000000
  5   3   3   3   -0.5000000000
  8   3   3   3    0.6666666667
  9   3   3   3    1.0000000000
  0   4   1   1   -0.7500000000
  1   4   1   1   -1.0000000000
  2   4   1   1    0.3333333333
  1   4   1   2    0.7500000000
  3   4   1   2   -1.0000000000
  4   4   1   2    0.3333333333
  2   4   1   3    0.7500000000
  4   4   1   3   -1.0000000000
  5   4   1   3    0.3333333333
  3   4   2   2    0.7500000000
  6   4   2   2   -1.0000000000
  7   4   2   2    0.3333333333
  4   4   2   3    0.7500000000
  7   4   2   3   -1.0000000000
  8   4   2   3    0.3333333333
  5   4   3   3    0.7500000000
  8   4   3   3   -1.0000000000
  9   4   3   3    0.3333333333
  0   5   1   1   -0.7500000000
  1   5   1   1    0.5000000000
  2   5   1   1   -1.0000000000
  1   5   1   2    0.7500000000
  3   5   1   2    0.5000000000
  4   5   1   2   -1.0000000000
  2   5   1   3    0.7500000000
  4   5   1   3    0.5000000000
  5   5   1   3   -1.0000000000
  3   5   2   2    0.7500000000
  6   5   2   2    0.5000000000
  7   5   2   2   -1.0000000000
  4   5   2   3    0.7500000000
  7   5   2   3    0.5000000000
  8   5   2   3   -1.0000000000
  5   5   3   3    0.7500000000
  8   5   3   3    0.5000000000
  9   5   3   3   -1.0000000000
  0   6   1   1   -1.0000000000
  1   6   1   1   -0.4000000000
  2   6   1   1   -0.8000000000
  1   6   1   2    1.0000000000
  3   6   1   2   -0.4000000000
  4   6   1   2   -0.8000000000
  2   6   1   3    1.0000000000
  4   6   1   3   -0.4000000000
  5   6   1   3   -0.8000000000
  3   6   2   2    1.0000000000
  6   6   2   2   -0.4000000000
  7   6   2   2   -0.8000000000
  4   6   2   3    1.0000000000
  7   6   2   3   -0.4000000000
  8   6   2   3   -0.8000000000
  5   6   3   3    1.0000000000
  8   6   3   3   -0.4000000000
  9   6   3   3   -0.8000000000
  1   7   1   1    1.0000000000
  3   7   1   2    1.0000000000
  4   7   1   3    1.0000000000
  6   7   2   2    1.0000000000
  7   7   2   3    1.0000000000
  8   7   3   3    1.0000000000
  2   8   1   1    1.0000000000
  4   8   1   2    1.0000000000
  5   8   1   3    1.0000000000
  7   8   2   2    1.0000000000
  8   8   2   3    1.0000000000
  9   8   3   3    1.0000000000
  0   9   1   1   -1.0000000000
  1   9   1   1   -1.0000000000
  1   9   1   2    1.0000000000
  3   9   1   2   -1.0000000000
  2   9   1   3    1.0000000000
  4   9   1   3   -1.0000000000
  3   9   2   2    1.0000000000
  6   9   2   2   -1.0000000000
  4   9   2   3    1.0000000000
  7   9   2   3   -1.0000000000
  5   9   3   3    1.0000000000
  8   9   3   3   -1.0000000000
  0  10   1   1   -1.0000000000
  2  10   1   1   -1.0000000000
  1  10   1   2    1.0000000000
  4  10   1   2   -1.0000000000
  2  10   1   3    1.0000000000
  5  10   1   3   -1.0000000000
  3  10   2   2    1.0000000000
  7  10   2   2   -1.0000000000
  4  10   2   3    1.0000000000
  8  10   2   3   -1.0000000000
  5  10   3   3    1.0000000000
  9  10   3   3   -1.0000000000
